nNurses = 86;
nHours = 30;
minHours = 7;
maxHours = 13;
maxConsec = 11;
maxPresence = 29;
demand = [20, 19, 22, 24, 25, 25, 22, 17, 12, 7, 9, 14, 19, 20, 24, 20, 19, 22, 22, 18, 20, 19, 20, 16, 16, 13, 9, 14, 17, 22];
